(set-logic QF_NRA)
(set-info :source |Benchmarks generated from hycomp (https://es-static.fbk.eu/tools/hycomp/). BMC instances of non-linear hybrid automata taken from: Alessandro Cimatti, Sergio Mover, Stefano Tonetta, A quantifier-free SMT encoding of non-linear hybrid automata, FMCAD 2012 and Alessandro Cimatti, Sergio Mover, Stefano Tonetta, Quantier-free encoding of invariants for Hybrid Systems, Formal Methods in System Design. This instance solves a BMC problem of depth 0 and uses the quantifier free encoding with lemmas encoding. Contacts: Sergio Mover (mover@fbk.eu), Stefano Tonetta (tonettas@fbk.eu), Alessandro Cimatti (cimatti@fbk.eu).|)
(set-info :smt-lib-version 2.0)
(set-info :category "industrial")
(set-info :status unsat)
;; MathSAT API call trace
;; generated on Mon Mar 19 10:39:37 2012
(declare-fun b.delta__AT0 () Real)
(declare-fun b.EVENT.0__AT0 () Bool)
(declare-fun speed_loss__AT0 () Real)
(declare-fun b.counter.3__AT0 () Bool)
(declare-fun b.speed_y__AT0 () Real)
(declare-fun b.EVENT.1__AT0 () Bool)
(declare-fun b.time__AT0 () Real)
(declare-fun b.y__AT0 () Real)
(declare-fun b.counter.0__AT0 () Bool)
(declare-fun b.counter.1__AT0 () Bool)
(declare-fun g__AT0 () Real)
(declare-fun b.event_is_timed__AT0 () Bool)
(declare-fun b.counter.2__AT0 () Bool)
(assert (let ((.def_69 (* (- 1.0) g__AT0)))
(let ((.def_70 (* (/ 1 2) .def_69)))
(let ((.def_77 (* 2.0 .def_70)))
(let ((.def_121 (* (- 1.0) .def_77)))
(let ((.def_122 (* b.delta__AT0 .def_121)))
(let ((.def_125 (<= .def_122 b.speed_y__AT0)))
(let ((.def_132 (not .def_125)))
(let ((.def_82 (<= 0.0 b.speed_y__AT0)))
(let ((.def_133 (or .def_82 .def_132)))
(let ((.def_123 (<= b.speed_y__AT0 .def_122)))
(let ((.def_96 (<= b.speed_y__AT0 0.0 )))
(let ((.def_97 (not .def_96)))
(let ((.def_131 (or .def_97 .def_123)))
(let ((.def_134 (and .def_131 .def_133)))
(let ((.def_112 (<= g__AT0 0.0 )))
(let ((.def_135 (or .def_112 .def_134)))
(let ((.def_127 (not .def_123)))
(let ((.def_128 (or .def_96 .def_127)))
(let ((.def_83 (not .def_82)))
(let ((.def_126 (or .def_83 .def_125)))
(let ((.def_129 (and .def_126 .def_128)))
(let ((.def_117 (<= 0.0 g__AT0)))
(let ((.def_130 (or .def_117 .def_129)))
(let ((.def_136 (and .def_130 .def_135)))
(let ((.def_124 (and .def_96 .def_123)))
(let ((.def_137 (and .def_124 .def_136)))
(let ((.def_78 (* b.delta__AT0 .def_77)))
(let ((.def_79 (+ b.speed_y__AT0 .def_78)))
(let ((.def_94 (<= .def_79 0.0 )))
(let ((.def_95 (not .def_94)))
(let ((.def_115 (or .def_95 .def_96)))
(let ((.def_80 (<= 0.0 .def_79)))
(let ((.def_114 (or .def_80 .def_83)))
(let ((.def_116 (and .def_114 .def_115)))
(let ((.def_118 (or .def_116 .def_117)))
(let ((.def_81 (not .def_80)))
(let ((.def_110 (or .def_81 .def_82)))
(let ((.def_109 (or .def_94 .def_97)))
(let ((.def_111 (and .def_109 .def_110)))
(let ((.def_113 (or .def_111 .def_112)))
(let ((.def_119 (and .def_113 .def_118)))
(let ((.def_108 (and .def_80 .def_82)))
(let ((.def_120 (and .def_108 .def_119)))
(let ((.def_138 (or .def_120 .def_137)))
(let ((.def_72 (* b.speed_y__AT0 b.delta__AT0)))
(let ((.def_67 (* b.delta__AT0 b.delta__AT0)))
(let ((.def_71 (* .def_67 .def_70)))
(let ((.def_73 (+ .def_71 .def_72)))
(let ((.def_74 (+ b.y__AT0 .def_73)))
(let ((.def_88 (<= .def_74 0.0 )))
(let ((.def_102 (not .def_88)))
(let ((.def_86 (<= b.y__AT0 0.0 )))
(let ((.def_103 (or .def_86 .def_102)))
(let ((.def_61 (<= 0.0 b.y__AT0)))
(let ((.def_100 (not .def_61)))
(let ((.def_75 (<= 0.0 .def_74)))
(let ((.def_101 (or .def_75 .def_100)))
(let ((.def_104 (and .def_101 .def_103)))
(let ((.def_98 (or .def_95 .def_97)))
(let ((.def_99 (not .def_98)))
(let ((.def_105 (or .def_99 .def_104)))
(let ((.def_90 (not .def_75)))
(let ((.def_91 (or .def_61 .def_90)))
(let ((.def_87 (not .def_86)))
(let ((.def_89 (or .def_87 .def_88)))
(let ((.def_92 (and .def_89 .def_91)))
(let ((.def_84 (or .def_81 .def_83)))
(let ((.def_85 (not .def_84)))
(let ((.def_93 (or .def_85 .def_92)))
(let ((.def_106 (and .def_93 .def_105)))
(let ((.def_76 (and .def_61 .def_75)))
(let ((.def_107 (and .def_76 .def_106)))
(let ((.def_139 (and .def_107 .def_138)))
(let ((.def_50 (<= g__AT0 10.0 )))
(let ((.def_49 (<= 8.0 g__AT0)))
(let ((.def_51 (and .def_49 .def_50)))
(let ((.def_140 (and .def_51 .def_139)))
(let ((.def_58 (<= speed_loss__AT0 (/ 1 2))))
(let ((.def_55 (<= (/ 1 10) speed_loss__AT0)))
(let ((.def_59 (and .def_55 .def_58)))
(let ((.def_141 (and .def_59 .def_140)))
(let ((.def_60 (and .def_51 .def_59)))
(let ((.def_62 (and .def_60 .def_61)))
(let ((.def_44 (not b.EVENT.0__AT0)))
(let ((.def_42 (not b.EVENT.1__AT0)))
(let ((.def_45 (or .def_42 .def_44)))
(let ((.def_9 (not b.counter.0__AT0)))
(let ((.def_6 (not b.counter.1__AT0)))
(let ((.def_35 (or .def_6 .def_9)))
(let ((.def_39 (or b.counter.3__AT0 .def_35)))
(let ((.def_36 (or b.counter.2__AT0 .def_35)))
(let ((.def_4 (not b.counter.2__AT0)))
(let ((.def_34 (or .def_4 .def_9)))
(let ((.def_37 (and .def_34 .def_36)))
(let ((.def_14 (not b.counter.3__AT0)))
(let ((.def_38 (or .def_14 .def_37)))
(let ((.def_40 (and .def_38 .def_39)))
(let ((.def_46 (and .def_40 .def_45)))
(let ((.def_63 (and .def_46 .def_62)))
(let ((.def_10 (and .def_6 .def_9)))
(let ((.def_31 (and .def_4 .def_10)))
(let ((.def_32 (and .def_14 .def_31)))
(let ((.def_29 (= b.speed_y__AT0 0.0 )))
(let ((.def_26 (= b.y__AT0 10.0 )))
(let ((.def_21 (= b.time__AT0 0.0 )))
(let ((.def_23 (and .def_21 b.event_is_timed__AT0)))
(let ((.def_27 (and .def_23 .def_26)))
(let ((.def_30 (and .def_27 .def_29)))
(let ((.def_33 (and .def_30 .def_32)))
(let ((.def_64 (and .def_33 .def_63)))
(let ((.def_16 (or .def_10 b.counter.3__AT0)))
(let ((.def_11 (or b.counter.2__AT0 .def_10)))
(let ((.def_7 (or .def_4 .def_6)))
(let ((.def_12 (and .def_7 .def_11)))
(let ((.def_15 (or .def_12 .def_14)))
(let ((.def_17 (and .def_15 .def_16)))
(let ((.def_18 (not .def_17)))
(let ((.def_65 (and .def_18 .def_64)))
(let ((.def_142 (and .def_65 .def_141)))
.def_142))))))))))))))))))))))))))))))))))))))))))))))))))))))))))))))))))))))))))))))))))))))))))))))))))))))))))))))))))))))))
(check-sat)
(exit)
